c colouring generated by benchmark framework
p edge 1284 6395
v 1 3
v 2 4
v 3 2
v 4 4
v 5 1
v 6 4
v 7 1
v 8 2
v 9 1
v 10 0
v 11 0
v 12 2
v 13 2
v 14 3
v 15 1
v 16 1
v 17 4
v 18 0
v 19 3
v 20 0
v 21 4
v 22 0
v 23 2
v 24 1
v 25 3
v 26 0
v 27 4
v 28 3
v 29 1
v 30 1
v 31 4
v 32 0
v 33 1
v 34 4
v 35 3
v 36 1
v 37 4
v 38 0
v 39 1
v 40 4
v 41 2
v 42 0
v 43 3
v 44 0
v 45 4
v 46 3
v 47 3
v 48 0
v 49 3
v 50 4
v 51 2
v 52 1
v 53 0
v 54 2
v 55 4
v 56 4
v 57 4
v 58 4
v 59 4
v 60 4
v 61 2
v 62 0
v 63 1
v 64 3
v 65 0
v 66 4
v 67 3
v 68 0
v 69 1
v 70 4
v 71 4
v 72 4
v 73 3
v 74 2
v 75 3
v 76 1
v 77 1
v 78 1
v 79 2
v 80 3
v 81 1
v 82 0
v 83 0
v 84 2
v 85 1
v 86 0
v 87 3
v 88 3
v 89 0
v 90 1
v 91 2
v 92 4
v 93 0
v 94 4
v 95 3
v 96 1
v 97 1
v 98 2
v 99 4
v 100 2
v 101 1
v 102 2
v 103 3
v 104 2
v 105 4
v 106 2
v 107 4
v 108 4
v 109 0
v 110 2
v 111 0
v 112 2
v 113 0
v 114 2
v 115 1
v 116 4
v 117 4
v 118 2
v 119 0
v 120 3
v 121 2
v 122 2
v 123 3
v 124 2
v 125 2
v 126 3
v 127 2
v 128 3
v 129 0
v 130 0
v 131 1
v 132 1
v 133 4
v 134 0
v 135 3
v 136 2
v 137 0
v 138 2
v 139 4
v 140 0
v 141 3
v 142 1
v 143 0
v 144 0
v 145 0
v 146 3
v 147 0
v 148 3
v 149 2
v 150 0
v 151 4
v 152 3
v 153 1
v 154 1
v 155 4
v 156 2
v 157 3
v 158 3
v 159 1
v 160 0
v 161 0
v 162 2
v 163 1
v 164 1
v 165 3
v 166 3
v 167 3
v 168 1
v 169 2
v 170 2
v 171 3
v 172 0
v 173 3
v 174 2
v 175 1
v 176 2
v 177 2
v 178 2
v 179 3
v 180 1
v 181 1
v 182 4
v 183 1
v 184 1
v 185 1
v 186 0
v 187 0
v 188 0
v 189 2
v 190 1
v 191 2
v 192 0
v 193 4
v 194 1
v 195 4
v 196 3
v 197 2
v 198 2
v 199 1
v 200 0
v 201 0
v 202 1
v 203 1
v 204 0
v 205 4
v 206 1
v 207 2
v 208 3
v 209 0
v 210 2
v 211 1
v 212 3
v 213 3
v 214 4
v 215 3
v 216 2
v 217 4
v 218 2
v 219 1
v 220 2
v 221 2
v 222 3
v 223 2
v 224 1
v 225 0
v 226 3
v 227 2
v 228 2
v 229 1
v 230 0
v 231 4
v 232 2
v 233 2
v 234 0
v 235 3
v 236 0
v 237 1
v 238 2
v 239 2
v 240 4
v 241 3
v 242 2
v 243 2
v 244 0
v 245 2
v 246 3
v 247 0
v 248 3
v 249 0
v 250 0
v 251 1
v 252 0
v 253 4
v 254 0
v 255 0
v 256 0
v 257 2
v 258 3
v 259 2
v 260 3
v 261 1
v 262 2
v 263 4
v 264 0
v 265 3
v 266 4
v 267 4
v 268 0
v 269 0
v 270 0
v 271 1
v 272 1
v 273 0
v 274 1
v 275 4
v 276 4
v 277 0
v 278 1
v 279 2
v 280 1
v 281 3
v 282 2
v 283 1
v 284 4
v 285 1
v 286 2
v 287 1
v 288 1
v 289 0
v 290 3
v 291 1
v 292 0
v 293 2
v 294 1
v 295 2
v 296 1
v 297 4
v 298 2
v 299 2
v 300 0
v 301 3
v 302 3
v 303 3
v 304 2
v 305 2
v 306 1
v 307 3
v 308 1
v 309 0
v 310 0
v 311 0
v 312 2
v 313 1
v 314 1
v 315 3
v 316 2
v 317 1
v 318 4
v 319 3
v 320 3
v 321 3
v 322 3
v 323 1
v 324 2
v 325 3
v 326 1
v 327 1
v 328 2
v 329 2
v 330 1
v 331 2
v 332 0
v 333 3
v 334 3
v 335 2
v 336 2
v 337 1
v 338 1
v 339 1
v 340 3
v 341 2
v 342 3
v 343 3
v 344 2
v 345 1
v 346 0
v 347 0
v 348 0
v 349 1
v 350 1
v 351 1
v 352 1
v 353 3
v 354 1
v 355 0
v 356 2
v 357 4
v 358 4
v 359 3
v 360 0
v 361 2
v 362 0
v 363 4
v 364 2
v 365 2
v 366 4
v 367 0
v 368 0
v 369 3
v 370 3
v 371 3
v 372 3
v 373 0
v 374 0
v 375 0
v 376 2
v 377 0
v 378 1
v 379 0
v 380 0
v 381 3
v 382 2
v 383 2
v 384 0
v 385 0
v 386 1
v 387 4
v 388 2
v 389 4
v 390 1
v 391 2
v 392 0
v 393 3
v 394 3
v 395 3
v 396 0
v 397 2
v 398 1
v 399 1
v 400 1
v 401 3
v 402 2
v 403 2
v 404 1
v 405 3
v 406 2
v 407 2
v 408 1
v 409 1
v 410 0
v 411 1
v 412 4
v 413 0
v 414 1
v 415 2
v 416 1
v 417 3
v 418 0
v 419 2
v 420 3
v 421 4
v 422 2
v 423 1
v 424 1
v 425 3
v 426 1
v 427 1
v 428 3
v 429 1
v 430 2
v 431 0
v 432 0
v 433 1
v 434 0
v 435 4
v 436 2
v 437 0
v 438 2
v 439 3
v 440 0
v 441 1
v 442 1
v 443 3
v 444 2
v 445 1
v 446 2
v 447 1
v 448 1
v 449 0
v 450 0
v 451 3
v 452 3
v 453 1
v 454 0
v 455 2
v 456 4
v 457 3
v 458 2
v 459 1
v 460 0
v 461 0
v 462 1
v 463 3
v 464 1
v 465 0
v 466 2
v 467 0
v 468 2
v 469 2
v 470 3
v 471 1
v 472 0
v 473 0
v 474 1
v 475 1
v 476 2
v 477 0
v 478 0
v 479 4
v 480 1
v 481 3
v 482 2
v 483 4
v 484 2
v 485 4
v 486 1
v 487 0
v 488 2
v 489 0
v 490 1
v 491 2
v 492 1
v 493 2
v 494 2
v 495 0
v 496 4
v 497 0
v 498 3
v 499 3
v 500 4
v 501 1
v 502 2
v 503 1
v 504 1
v 505 2
v 506 2
v 507 3
v 508 3
v 509 0
v 510 1
v 511 4
v 512 0
v 513 1
v 514 4
v 515 2
v 516 1
v 517 2
v 518 0
v 519 3
v 520 3
v 521 3
v 522 0
v 523 0
v 524 0
v 525 1
v 526 0
v 527 1
v 528 3
v 529 1
v 530 0
v 531 0
v 532 0
v 533 1
v 534 1
v 535 2
v 536 1
v 537 0
v 538 0
v 539 1
v 540 3
v 541 2
v 542 1
v 543 2
v 544 1
v 545 3
v 546 1
v 547 0
v 548 4
v 549 0
v 550 3
v 551 2
v 552 2
v 553 2
v 554 0
v 555 2
v 556 0
v 557 1
v 558 1
v 559 2
v 560 1
v 561 2
v 562 0
v 563 3
v 564 2
v 565 3
v 566 4
v 567 3
v 568 3
v 569 3
v 570 1
v 571 0
v 572 3
v 573 2
v 574 0
v 575 1
v 576 2
v 577 3
v 578 2
v 579 4
v 580 1
v 581 4
v 582 2
v 583 1
v 584 1
v 585 3
v 586 4
v 587 1
v 588 1
v 589 1
v 590 4
v 591 1
v 592 0
v 593 1
v 594 1
v 595 0
v 596 2
v 597 1
v 598 3
v 599 3
v 600 3
v 601 3
v 602 2
v 603 0
v 604 0
v 605 1
v 606 3
v 607 1
v 608 3
v 609 3
v 610 4
v 611 4
v 612 1
v 613 3
v 614 0
v 615 3
v 616 0
v 617 1
v 618 1
v 619 0
v 620 1
v 621 0
v 622 1
v 623 4
v 624 1
v 625 2
v 626 2
v 627 1
v 628 1
v 629 1
v 630 2
v 631 2
v 632 2
v 633 0
v 634 2
v 635 0
v 636 0
v 637 4
v 638 1
v 639 0
v 640 0
v 641 1
v 642 2
v 643 0
v 644 1
v 645 2
v 646 1
v 647 1
v 648 2
v 649 1
v 650 3
v 651 2
v 652 1
v 653 3
v 654 1
v 655 1
v 656 3
v 657 0
v 658 3
v 659 0
v 660 1
v 661 4
v 662 2
v 663 0
v 664 1
v 665 1
v 666 2
v 667 3
v 668 0
v 669 4
v 670 0
v 671 1
v 672 1
v 673 1
v 674 0
v 675 2
v 676 4
v 677 2
v 678 1
v 679 4
v 680 2
v 681 0
v 682 2
v 683 4
v 684 0
v 685 1
v 686 0
v 687 2
v 688 4
v 689 2
v 690 0
v 691 3
v 692 4
v 693 3
v 694 1
v 695 0
v 696 3
v 697 3
v 698 3
v 699 0
v 700 1
v 701 0
v 702 0
v 703 3
v 704 2
v 705 2
v 706 3
v 707 4
v 708 3
v 709 4
v 710 3
v 711 1
v 712 2
v 713 3
v 714 2
v 715 0
v 716 0
v 717 3
v 718 3
v 719 1
v 720 1
v 721 4
v 722 4
v 723 0
v 724 2
v 725 0
v 726 0
v 727 0
v 728 0
v 729 1
v 730 4
v 731 1
v 732 0
v 733 1
v 734 0
v 735 1
v 736 3
v 737 2
v 738 2
v 739 4
v 740 1
v 741 3
v 742 3
v 743 0
v 744 0
v 745 1
v 746 3
v 747 3
v 748 1
v 749 2
v 750 2
v 751 0
v 752 0
v 753 2
v 754 3
v 755 2
v 756 1
v 757 2
v 758 0
v 759 2
v 760 2
v 761 3
v 762 2
v 763 2
v 764 4
v 765 2
v 766 0
v 767 1
v 768 2
v 769 0
v 770 1
v 771 0
v 772 4
v 773 0
v 774 4
v 775 1
v 776 1
v 777 3
v 778 1
v 779 4
v 780 3
v 781 0
v 782 1
v 783 4
v 784 2
v 785 4
v 786 4
v 787 2
v 788 3
v 789 4
v 790 3
v 791 0
v 792 1
v 793 2
v 794 3
v 795 1
v 796 3
v 797 4
v 798 3
v 799 3
v 800 3
v 801 3
v 802 4
v 803 2
v 804 2
v 805 2
v 806 1
v 807 4
v 808 1
v 809 2
v 810 2
v 811 0
v 812 0
v 813 3
v 814 0
v 815 3
v 816 2
v 817 0
v 818 0
v 819 2
v 820 3
v 821 0
v 822 3
v 823 0
v 824 4
v 825 2
v 826 1
v 827 3
v 828 2
v 829 0
v 830 0
v 831 0
v 832 4
v 833 3
v 834 3
v 835 0
v 836 1
v 837 2
v 838 3
v 839 3
v 840 2
v 841 4
v 842 1
v 843 0
v 844 3
v 845 4
v 846 1
v 847 2
v 848 2
v 849 2
v 850 4
v 851 4
v 852 1
v 853 0
v 854 3
v 855 0
v 856 4
v 857 2
v 858 3
v 859 2
v 860 0
v 861 1
v 862 3
v 863 1
v 864 0
v 865 0
v 866 0
v 867 2
v 868 0
v 869 0
v 870 3
v 871 4
v 872 4
v 873 3
v 874 1
v 875 2
v 876 1
v 877 1
v 878 2
v 879 2
v 880 3
v 881 0
v 882 3
v 883 3
v 884 1
v 885 1
v 886 3
v 887 2
v 888 0
v 889 0
v 890 4
v 891 3
v 892 3
v 893 0
v 894 4
v 895 3
v 896 4
v 897 1
v 898 3
v 899 2
v 900 0
v 901 0
v 902 1
v 903 3
v 904 1
v 905 3
v 906 1
v 907 1
v 908 1
v 909 4
v 910 0
v 911 4
v 912 2
v 913 3
v 914 0
v 915 2
v 916 4
v 917 0
v 918 3
v 919 1
v 920 4
v 921 0
v 922 1
v 923 0
v 924 3
v 925 2
v 926 0
v 927 3
v 928 4
v 929 2
v 930 2
v 931 4
v 932 2
v 933 3
v 934 0
v 935 3
v 936 3
v 937 2
v 938 0
v 939 3
v 940 0
v 941 2
v 942 3
v 943 2
v 944 1
v 945 4
v 946 0
v 947 3
v 948 4
v 949 0
v 950 4
v 951 0
v 952 1
v 953 2
v 954 0
v 955 3
v 956 2
v 957 1
v 958 0
v 959 1
v 960 0
v 961 3
v 962 2
v 963 3
v 964 4
v 965 1
v 966 1
v 967 1
v 968 3
v 969 3
v 970 3
v 971 3
v 972 2
v 973 1
v 974 0
v 975 0
v 976 0
v 977 2
v 978 2
v 979 2
v 980 2
v 981 3
v 982 1
v 983 2
v 984 0
v 985 3
v 986 3
v 987 0
v 988 4
v 989 3
v 990 1
v 991 1
v 992 0
v 993 3
v 994 2
v 995 3
v 996 1
v 997 1
v 998 1
v 999 1
v 1000 3
v 1001 3
v 1002 0
v 1003 2
v 1004 0
v 1005 0
v 1006 4
v 1007 3
v 1008 1
v 1009 0
v 1010 0
v 1011 3
v 1012 2
v 1013 0
v 1014 0
v 1015 0
v 1016 1
v 1017 4
v 1018 3
v 1019 4
v 1020 0
v 1021 1
v 1022 0
v 1023 2
v 1024 2
v 1025 4
v 1026 2
v 1027 0
v 1028 0
v 1029 1
v 1030 1
v 1031 3
v 1032 2
v 1033 1
v 1034 0
v 1035 3
v 1036 1
v 1037 1
v 1038 2
v 1039 1
v 1040 3
v 1041 0
v 1042 2
v 1043 3
v 1044 3
v 1045 2
v 1046 1
v 1047 2
v 1048 3
v 1049 1
v 1050 4
v 1051 2
v 1052 0
v 1053 2
v 1054 1
v 1055 1
v 1056 2
v 1057 3
v 1058 2
v 1059 3
v 1060 1
v 1061 2
v 1062 1
v 1063 3
v 1064 1
v 1065 2
v 1066 0
v 1067 2
v 1068 0
v 1069 1
v 1070 2
v 1071 1
v 1072 2
v 1073 2
v 1074 1
v 1075 2
v 1076 0
v 1077 4
v 1078 4
v 1079 2
v 1080 4
v 1081 0
v 1082 1
v 1083 2
v 1084 2
v 1085 1
v 1086 2
v 1087 0
v 1088 4
v 1089 3
v 1090 1
v 1091 1
v 1092 1
v 1093 0
v 1094 2
v 1095 4
v 1096 1
v 1097 0
v 1098 0
v 1099 1
v 1100 2
v 1101 2
v 1102 3
v 1103 3
v 1104 1
v 1105 3
v 1106 1
v 1107 1
v 1108 2
v 1109 1
v 1110 1
v 1111 1
v 1112 2
v 1113 2
v 1114 0
v 1115 1
v 1116 2
v 1117 0
v 1118 3
v 1119 2
v 1120 1
v 1121 0
v 1122 1
v 1123 4
v 1124 2
v 1125 0
v 1126 0
v 1127 2
v 1128 2
v 1129 0
v 1130 2
v 1131 2
v 1132 0
v 1133 0
v 1134 3
v 1135 1
v 1136 1
v 1137 0
v 1138 4
v 1139 1
v 1140 0
v 1141 3
v 1142 4
v 1143 1
v 1144 3
v 1145 1
v 1146 3
v 1147 2
v 1148 2
v 1149 1
v 1150 4
v 1151 1
v 1152 0
v 1153 0
v 1154 0
v 1155 0
v 1156 3
v 1157 2
v 1158 4
v 1159 1
v 1160 0
v 1161 0
v 1162 3
v 1163 3
v 1164 0
v 1165 2
v 1166 0
v 1167 0
v 1168 1
v 1169 3
v 1170 2
v 1171 3
v 1172 4
v 1173 1
v 1174 1
v 1175 0
v 1176 1
v 1177 2
v 1178 2
v 1179 2
v 1180 3
v 1181 1
v 1182 1
v 1183 1
v 1184 2
v 1185 3
v 1186 2
v 1187 2
v 1188 2
v 1189 0
v 1190 0
v 1191 2
v 1192 2
v 1193 3
v 1194 2
v 1195 0
v 1196 0
v 1197 0
v 1198 3
v 1199 0
v 1200 2
v 1201 0
v 1202 0
v 1203 2
v 1204 0
v 1205 0
v 1206 4
v 1207 3
v 1208 3
v 1209 1
v 1210 1
v 1211 2
v 1212 1
v 1213 0
v 1214 0
v 1215 1
v 1216 0
v 1217 1
v 1218 2
v 1219 0
v 1220 3
v 1221 2
v 1222 2
v 1223 2
v 1224 3
v 1225 1
v 1226 3
v 1227 0
v 1228 1
v 1229 2
v 1230 2
v 1231 3
v 1232 1
v 1233 0
v 1234 3
v 1235 2
v 1236 0
v 1237 2
v 1238 0
v 1239 0
v 1240 0
v 1241 3
v 1242 1
v 1243 3
v 1244 3
v 1245 1
v 1246 0
v 1247 4
v 1248 2
v 1249 3
v 1250 0
v 1251 2
v 1252 4
v 1253 0
v 1254 0
v 1255 2
v 1256 4
v 1257 0
v 1258 0
v 1259 0
v 1260 0
v 1261 1
v 1262 1
v 1263 3
v 1264 2
v 1265 0
v 1266 2
v 1267 0
v 1268 0
v 1269 1
v 1270 1
v 1271 2
v 1272 1
v 1273 0
v 1274 1
v 1275 1
v 1276 1
v 1277 2
v 1278 1
v 1279 2
v 1280 2
v 1281 0
v 1282 4
v 1283 1
v 1284 1
